0000000000000000
0000000000000000
0000000000000000
0011111110000000
0000000011000000
0000000001100000
0000000001100000
0000000001100000
0000000001100000
0000000001100000
0000000001100000
0011111111100000
0011000001100000
0011000001100000
0011000001100000
0000000000000000